c User generated cnf file
p cnf 14 35
12 -7 12 0 
-11 5 11 0 
-11 4 4 0 
5 14 -1 0 
2 4 -12 0 
-13 4 10 0 
-1 1 3 0 
3 8 -4 0 
-10 3 10 0 
-12 3 4 0 
-9 8 2 0 
8 7 -11 0 
9 5 -13 0 
-14 10 7 0 
2 -13 11 0 
-10 3 12 0 
-9 2 4 0 
2 -10 12 0 
-10 7 7 0 
-14 11 10 0 
12 -8 11 0 
7 5 -10 0 
-2 12 4 0 
13 4 -5 0 
-2 2 1 0 
-12 5 3 0 
-3 2 7 0 
-1 8 4 0 
-1 8 10 0 
7 12 -2 0 
7 1 -14 0 
6 1 -10 0 
10 5 -4 0 
4 -5 4 0 
10 8 -4 0 
